(set-logic ALL)
(set-option :produce-models true)
(define-fun-rec str.toLower ((x String)) String
  (ite (= x "")
      ""
      (let ((Head (str.at x 0)))
        (str.++ 
          (ite (and (<= 65 (str.to_code Head)) 
                     (<= (str.to_code Head) 90))
               (str.from_code (+ (str.to_code Head) 32))
               Head)
          (str.toLower (str.substr x 1 (- (str.len x) 1)))))))
(declare-fun sym122 () String)
(declare-fun sym247 () String)
(declare-fun sym339 () String)

(assert (not (= (str.toLower sym339 )"/?" )))
(assert (not (= (str.toLower sym247 )"/help" )))
(assert (not (= (str.toLower sym247 )"n" )))
(assert (not (str.contains (str.toLower sym339 )"/setfont" )))
(assert (not (= (str.toLower sym339 )"/quit" )))
(assert (not (str.contains (str.toLower sym339 )"/say" )))
(assert (not (= (str.toLower sym247 )"/quit" )))
(assert (not (= (str.toLower sym247 )"/clear" )))
(assert (not (= (str.toLower sym339 )"/restart" )))
(assert (not (= (str.toLower sym339 )"y" )))
(assert (not (= (str.toLower sym339 )"/clear" )))
(assert (not (str.contains (str.toLower sym247 )"/setfont" )))
(assert (not (str.contains (str.toLower sym247 )"/say" )))
(assert (not (= (str.toLower sym247 )"y" )))
(assert (not (= (str.toLower sym339 )"/help" )))
(assert (not (= (str.toLower sym339 )"n" )))
(assert (= (str.toLower sym122 )"middle school" ))
(assert (not (= (str.toLower sym122 )"elementary" )))
(assert (not (= (str.toLower sym247 )"/restart" )))
(assert (not (str.contains (str.toLower sym247 )"/setsize" )))
(assert (not (= (str.toLower sym247 )"/?" )))
(assert (not (str.contains (str.toLower sym339 )"/setsize" )))
(check-sat)
(get-model)
(exit)
